c Output_time 26.03.2020 18:13:31_+0100 1585242811681963803
c ** Program information **
c program_name                          "QBRG_debug"
c version                               "0.3.20"
c date                                  "25.3.2020"
c gid_id                                "673970833836058123f633335630c185360d632e"
c author                                "Oliver Kullmann"
c url                                   "https://github.com/OKullmann/oklibrary/blob/master/Satisfiability/Transformers/Generators/Random/QBRG.cpp"
c ** Machine information **
c machine_name                          "chyna-Lenovo-G50-70"
c bogomips                              3791.08
c ** Compilation information **
c compiler_version                      "g++ 7.5.0"
c compilation_date                      "Mar_26_2020 11:16:30"
c compilation_options                   "--std=c++17 -pedantic -fmax-errors=5 -Wall -Wextra -g -D_GLIBCXX_DEBUG"
c NDEBUG                                0
c OPTIMIZE                              0
c ** Parameters **
c command-line                          "./QBRG_debug" "e40 a40 40" "581*1,1|2-2,1|3-3,1" "" "1,t" ""
c output                                "QuBlRaGe_120_581_1585242811501739172.qdimacs"
c options                               "filtered,renamed"
c num_quantifier_blocks                 3
c  quantifier_blocks                    1:e1-40 2:a41-80 3:e81-120
c num_clause-blocks                     1
c  clause-blocks                        581 * {1-40,1,1/2} | {41-80,1,1/2} | {81-120,1,1/2}
c num_e-seeds                           30+2=32
c  e-seeds                              1 0 1 0 4 120 2 40 1 40 0 40 1 581 3 1 1 1 1 2 2 2 1 1 2 3 3 1 1 2 1 1585242811501738313
p cnf 120 581
e 1 2 3 4 5 6 7 8 9 10 11 12 13 14 15 16 17 18 19 20 21 22 23 24 25 26 27 28 29 30 31 32 33 34 35 36 37 38 39 40 0
a 41 42 43 44 45 46 47 48 49 50 51 52 53 54 55 56 57 58 59 60 61 62 63 64 65 66 67 68 69 70 71 72 73 74 75 76 77 78 79 80 0
e 81 82 83 84 85 86 87 88 89 90 91 92 93 94 95 96 97 98 99 100 101 102 103 104 105 106 107 108 109 110 111 112 113 114 115 116 117 118 119 120 0
-1 -55 -81 0
-38 59 -81 0
34 68 -81 0
-40 -76 -81 0
12 -79 -81 0
12 47 81 0
-7 -53 81 0
18 55 81 0
35 -57 81 0
17 61 81 0
14 -64 81 0
-2 64 81 0
39 74 81 0
-37 42 -82 0
-5 47 -82 0
38 -56 -82 0
-25 57 -82 0
33 62 -82 0
29 69 -82 0
-40 70 -82 0
20 -71 -82 0
-37 77 -82 0
-24 -43 82 0
21 44 82 0
2 -50 82 0
-25 53 82 0
18 54 82 0
-29 58 82 0
-39 62 82 0
-15 80 82 0
33 57 -83 0
21 -70 -83 0
2 -71 -83 0
5 -78 -83 0
-30 46 83 0
-36 -48 83 0
23 56 83 0
24 61 83 0
14 65 83 0
22 68 83 0
-40 75 83 0
11 54 -84 0
16 55 -84 0
18 -60 -84 0
11 -62 -84 0
14 62 -84 0
32 66 -84 0
26 68 -84 0
33 70 -84 0
21 71 -84 0
12 79 -84 0
11 -47 84 0
-17 -48 84 0
40 -50 84 0
-27 63 84 0
8 -76 84 0
-20 79 84 0
26 44 -85 0
10 -76 -85 0
-20 79 -85 0
40 -45 85 0
10 45 85 0
-37 -59 85 0
5 -60 85 0
30 -64 85 0
35 65 85 0
10 -68 85 0
26 -71 85 0
33 -43 -86 0
-25 43 -86 0
-4 -49 -86 0
-31 -51 -86 0
33 68 -86 0
-22 69 -86 0
15 -76 -86 0
-26 -78 -86 0
-37 45 86 0
-30 52 86 0
-15 -62 86 0
6 -75 86 0
-14 77 86 0
18 -43 -87 0
15 46 -87 0
-28 -66 -87 0
20 68 -87 0
2 46 87 0
6 47 87 0
31 -49 87 0
16 50 87 0
25 -54 87 0
28 -55 87 0
28 -60 87 0
33 -69 87 0
5 -71 87 0
-34 -76 87 0
17 79 87 0
-3 -46 -88 0
-32 48 -88 0
20 49 -88 0
3 -54 -88 0
11 -56 -88 0
14 -56 -88 0
15 -62 -88 0
-40 -64 -88 0
18 -67 -88 0
-13 67 -88 0
33 -76 -88 0
34 77 -88 0
-38 -49 88 0
5 -55 88 0
-12 -76 88 0
-19 -80 88 0
28 43 -89 0
14 45 -89 0
-8 47 -89 0
-7 -65 -89 0
-16 -72 -89 0
-36 46 89 0
-16 -53 89 0
-22 60 89 0
10 -61 89 0
16 -67 89 0
-12 52 -90 0
7 -58 -90 0
-5 -63 -90 0
-35 -73 -90 0
26 73 -90 0
-14 79 -90 0
-13 42 90 0
-36 43 90 0
-28 44 90 0
36 49 90 0
-32 -62 90 0
12 69 90 0
-24 72 90 0
-15 -74 90 0
29 41 -91 0
5 -67 -91 0
23 -76 -91 0
-9 77 -91 0
-8 -78 -91 0
-21 43 91 0
31 47 91 0
13 56 91 0
-2 65 91 0
25 71 91 0
9 72 91 0
38 75 91 0
40 -77 91 0
-38 50 -92 0
-13 -51 -92 0
16 -57 -92 0
-21 -57 -92 0
-17 -65 -92 0
40 68 -92 0
40 70 -92 0
-5 80 -92 0
29 -47 92 0
36 -63 92 0
40 -74 92 0
-2 74 92 0
-29 74 92 0
37 -46 -93 0
-9 47 -93 0
31 -49 -93 0
36 60 -93 0
-2 -65 -93 0
13 -75 -93 0
5 -41 93 0
38 -46 93 0
-11 51 93 0
-30 -53 93 0
5 54 93 0
-38 57 93 0
19 -69 93 0
-18 -41 -94 0
-23 -41 -94 0
-25 45 -94 0
39 53 -94 0
-39 58 -94 0
-4 -72 -94 0
13 -75 -94 0
16 77 -94 0
-29 42 94 0
37 42 94 0
10 -50 94 0
27 -61 94 0
22 -67 94 0
-10 -68 94 0
-40 68 94 0
-34 -71 94 0
-16 -72 94 0
22 74 94 0
-34 -75 94 0
-36 -76 94 0
-38 41 -95 0
-2 45 -95 0
34 48 -95 0
-10 -50 -95 0
9 -54 -95 0
-2 -55 -95 0
1 -58 -95 0
15 58 -95 0
-29 64 -95 0
-28 -68 -95 0
7 74 -95 0
-28 -46 95 0
-5 -49 95 0
-34 53 95 0
11 55 95 0
-1 -62 95 0
2 -65 95 0
-24 68 95 0
3 -70 95 0
17 -50 -96 0
-24 -63 -96 0
-38 76 -96 0
20 41 96 0
4 -53 96 0
-24 -53 96 0
-37 -58 96 0
-1 63 96 0
28 -65 96 0
16 -72 96 0
10 77 96 0
-25 78 96 0
16 -80 96 0
33 44 -97 0
25 45 -97 0
-32 56 -97 0
16 -64 -97 0
-17 -68 -97 0
-34 -73 -97 0
28 -45 97 0
10 51 97 0
7 60 97 0
-23 -72 97 0
3 75 97 0
-13 55 -98 0
-33 -63 -98 0
38 74 -98 0
9 50 98 0
-32 -54 98 0
-28 -65 98 0
-11 72 98 0
-20 72 98 0
7 -55 -99 0
-29 58 -99 0
-20 -59 -99 0
15 75 -99 0
-19 76 -99 0
-1 -45 99 0
38 -45 99 0
20 48 99 0
-25 -57 99 0
-31 58 99 0
-33 -59 99 0
25 -62 99 0
4 -76 99 0
16 78 99 0
-8 -41 -100 0
-33 41 -100 0
-8 44 -100 0
36 -50 -100 0
29 -51 -100 0
-33 -51 -100 0
-39 -66 -100 0
-8 -77 -100 0
-15 42 100 0
-14 -55 100 0
30 58 100 0
-28 59 100 0
23 62 100 0
-15 64 100 0
34 73 100 0
37 75 100 0
-32 79 100 0
-3 44 -101 0
-13 -48 -101 0
6 -56 -101 0
-23 -58 -101 0
-26 62 -101 0
30 -72 -101 0
-25 73 -101 0
-33 -77 -101 0
-3 -43 101 0
4 46 101 0
36 -52 101 0
27 55 101 0
-27 71 101 0
28 80 101 0
4 -51 -102 0
2 58 -102 0
28 61 -102 0
9 -63 -102 0
2 63 -102 0
39 72 -102 0
-9 -77 -102 0
17 -78 -102 0
-31 -41 102 0
-39 -43 102 0
-31 43 102 0
-20 -50 102 0
40 50 102 0
11 54 102 0
-2 -56 102 0
3 -68 102 0
16 -68 102 0
20 -71 102 0
-5 43 -103 0
-19 -61 -103 0
5 -69 -103 0
11 69 -103 0
-33 -71 -103 0
6 -74 -103 0
-29 74 -103 0
-32 74 -103 0
-17 -78 -103 0
-37 -78 -103 0
31 79 -103 0
-24 41 103 0
18 66 103 0
2 70 103 0
-37 -73 103 0
-25 43 -104 0
-40 43 -104 0
15 -44 -104 0
-12 -59 -104 0
-25 -59 -104 0
-33 -71 -104 0
23 -76 -104 0
-37 -48 104 0
9 -49 104 0
39 -49 104 0
-37 54 104 0
-17 55 104 0
12 -64 104 0
35 -68 104 0
38 -70 104 0
10 80 104 0
32 45 -105 0
19 -56 -105 0
37 56 -105 0
-8 -58 -105 0
-31 66 -105 0
38 -72 -105 0
-1 -43 105 0
-39 -43 105 0
-20 -45 105 0
20 48 105 0
-30 50 105 0
17 -55 105 0
7 60 105 0
7 -73 105 0
17 73 105 0
-14 -78 105 0
-20 -78 105 0
11 41 -106 0
-13 42 -106 0
-34 -53 -106 0
-33 -60 -106 0
-29 -72 -106 0
19 72 -106 0
26 42 106 0
-3 62 106 0
26 -64 106 0
22 -65 106 0
-30 65 106 0
22 -78 106 0
-8 78 106 0
-35 80 106 0
36 -42 -107 0
-21 -44 -107 0
-31 51 -107 0
-13 -53 -107 0
-25 -53 -107 0
8 53 -107 0
9 -55 -107 0
-10 -62 -107 0
34 70 -107 0
-31 -76 -107 0
39 -77 -107 0
-35 -41 107 0
-38 -43 107 0
14 -46 107 0
4 -48 107 0
20 -75 107 0
-20 -46 -108 0
-29 51 -108 0
6 -58 -108 0
-37 -59 -108 0
-29 59 -108 0
-30 -65 -108 0
-18 67 -108 0
24 67 -108 0
-31 70 -108 0
-6 -75 -108 0
-27 77 -108 0
-23 46 108 0
-26 -56 108 0
-23 56 108 0
-8 57 108 0
-31 58 108 0
11 59 108 0
-31 -64 108 0
30 69 108 0
30 72 108 0
-29 56 -109 0
-26 57 -109 0
-22 62 -109 0
-5 -67 -109 0
37 -70 -109 0
25 -45 109 0
-1 -56 109 0
-34 58 109 0
-4 63 109 0
32 66 109 0
21 -68 109 0
11 -70 109 0
39 -55 -110 0
-20 56 -110 0
-18 -58 -110 0
-2 76 -110 0
25 80 -110 0
-8 -44 110 0
7 -56 110 0
-12 -57 110 0
24 -66 110 0
-24 67 110 0
1 -72 110 0
3 -74 110 0
26 -77 110 0
35 -79 110 0
-10 -80 110 0
-36 -80 110 0
21 -44 -111 0
-38 44 -111 0
-26 -46 -111 0
22 50 -111 0
-23 50 -111 0
-16 -55 -111 0
-16 55 -111 0
11 57 -111 0
-31 57 -111 0
-24 61 -111 0
-15 -77 -111 0
27 -53 111 0
1 54 111 0
-7 56 111 0
-34 71 111 0
29 -72 111 0
-36 80 111 0
-20 44 -112 0
8 -52 -112 0
-12 -52 -112 0
11 -53 -112 0
23 61 -112 0
-25 -66 -112 0
16 -71 -112 0
13 76 -112 0
-34 -42 112 0
31 -55 112 0
-26 69 112 0
35 71 112 0
-3 42 -113 0
22 42 -113 0
-7 -48 -113 0
-9 50 -113 0
-4 58 -113 0
-9 65 -113 0
36 -70 -113 0
12 72 -113 0
-37 -78 -113 0
-9 78 -113 0
-33 52 113 0
4 -59 113 0
26 66 113 0
22 -42 -114 0
-39 44 -114 0
-5 -45 -114 0
13 -51 -114 0
8 51 -114 0
-23 -52 -114 0
-32 -52 -114 0
32 54 -114 0
-34 -66 -114 0
-33 70 -114 0
-4 -71 -114 0
-39 76 -114 0
5 -78 -114 0
8 48 114 0
-32 -54 114 0
31 56 114 0
35 -60 114 0
3 -65 114 0
-33 -50 -115 0
9 51 -115 0
19 51 -115 0
-31 52 -115 0
4 -54 -115 0
-32 65 -115 0
-7 71 -115 0
16 72 -115 0
-17 -73 -115 0
-38 76 -115 0
-4 -80 -115 0
-22 -51 115 0
29 52 115 0
24 -55 115 0
19 -72 115 0
33 -76 115 0
20 -58 -116 0
-33 -64 -116 0
-36 64 -116 0
-22 -70 -116 0
-6 76 -116 0
5 45 116 0
5 -46 116 0
-7 46 116 0
1 67 116 0
-18 -71 116 0
-36 76 116 0
21 -79 116 0
-30 42 -117 0
-19 58 -117 0
32 -64 -117 0
-24 -68 -117 0
26 -69 -117 0
-32 69 -117 0
26 -70 -117 0
-16 -76 -117 0
27 78 -117 0
19 43 117 0
-38 45 117 0
17 47 117 0
22 47 117 0
-28 55 117 0
14 -77 117 0
20 -79 117 0
33 -79 117 0
-13 -80 117 0
-24 -47 -118 0
14 54 -118 0
-27 -55 -118 0
28 62 -118 0
-30 -68 -118 0
30 -71 -118 0
10 71 -118 0
-18 74 -118 0
-12 -42 118 0
-2 -45 118 0
13 -45 118 0
1 50 118 0
2 -69 118 0
31 69 118 0
16 75 118 0
-6 -76 118 0
9 -78 118 0
-29 -43 -119 0
-33 -52 -119 0
-11 -55 -119 0
7 64 -119 0
26 74 -119 0
29 77 -119 0
-2 80 -119 0
25 -44 119 0
2 -46 119 0
-3 -61 119 0
-16 -68 119 0
-31 51 -120 0
14 -54 -120 0
-40 57 -120 0
7 63 -120 0
-28 -65 -120 0
34 66 -120 0
-38 -73 -120 0
-7 75 -120 0
-7 -76 -120 0
-22 -80 -120 0
28 77 120 0
39 80 120 0
